p cnf 386 460
16 11 -18 21 22 0
16 11 -18 21 -22 0
16 11 -18 -21 23 0
16 11 -18 -21 -23 0
7 4 -18 24 25 0
7 4 -18 24 -25 0
7 4 -18 -24 26 0
7 4 -18 -24 -26 0
-18 -5 -16 27 28 0
-18 -5 -16 27 -28 0
-18 -5 -16 -27 29 0
-18 -5 -16 -27 -29 0
11 18 7 30 31 0
11 18 7 30 -31 0
11 18 7 -30 32 0
11 18 7 -30 -32 0
-18 14 9 33 34 0
-18 14 9 33 -34 0
-18 14 9 -33 35 0
-18 14 9 -33 -35 0
-10 -11 -20 36 37 0
-10 -11 -20 36 -37 0
-10 -11 -20 -36 38 0
-10 -11 -20 -36 -38 0
20 2 -14 39 40 0
20 2 -14 39 -40 0
20 2 -14 -39 41 0
20 2 -14 -39 -41 0
-1 19 16 42 43 0
-1 19 16 42 -43 0
-1 19 16 -42 44 0
-1 19 16 -42 -44 0
-12 -1 -4 45 46 0
-12 -1 -4 45 -46 0
-12 -1 -4 -45 47 0
-12 -1 -4 -45 -47 0
19 8 7 48 49 0
19 8 7 48 -49 0
19 8 7 -48 50 0
19 8 7 -48 -50 0
9 12 -18 51 52 0
9 12 -18 51 -52 0
9 12 -18 -51 53 0
9 12 -18 -51 -53 0
-5 4 -17 54 55 0
-5 4 -17 54 -55 0
-5 4 -17 -54 56 0
-5 4 -17 -54 -56 0
10 8 17 57 58 0
10 8 17 57 -58 0
10 8 17 -57 59 0
10 8 17 -57 -59 0
-10 -15 -7 60 61 0
-10 -15 -7 60 -61 0
-10 -15 -7 -60 62 0
-10 -15 -7 -60 -62 0
-7 -11 5 63 64 0
-7 -11 5 63 -64 0
-7 -11 5 -63 65 0
-7 -11 5 -63 -65 0
-1 -7 19 66 67 0
-1 -7 19 66 -67 0
-1 -7 19 -66 68 0
-1 -7 19 -66 -68 0
-14 -1 -7 69 70 0
-14 -1 -7 69 -70 0
-14 -1 -7 -69 71 0
-14 -1 -7 -69 -71 0
8 -9 1 72 73 0
8 -9 1 72 -73 0
8 -9 1 -72 74 0
8 -9 1 -72 -74 0
-10 -3 -19 75 76 0
-10 -3 -19 75 -76 0
-10 -3 -19 -75 77 0
-10 -3 -19 -75 -77 0
-14 -3 -2 78 79 0
-14 -3 -2 78 -79 0
-14 -3 -2 -78 80 0
-14 -3 -2 -78 -80 0
5 -17 6 81 82 0
5 -17 6 81 -82 0
5 -17 6 -81 83 0
5 -17 6 -81 -83 0
-6 -8 2 84 85 0
-6 -8 2 84 -85 0
-6 -8 2 -84 86 0
-6 -8 2 -84 -86 0
6 9 -10 87 88 0
6 9 -10 87 -88 0
6 9 -10 -87 89 0
6 9 -10 -87 -89 0
-4 -7 16 90 91 0
-4 -7 16 90 -91 0
-4 -7 16 -90 92 0
-4 -7 16 -90 -92 0
-3 -20 -7 93 94 0
-3 -20 -7 93 -94 0
-3 -20 -7 -93 95 0
-3 -20 -7 -93 -95 0
15 5 -13 96 97 0
15 5 -13 96 -97 0
15 5 -13 -96 98 0
15 5 -13 -96 -98 0
-17 8 -11 99 100 0
-17 8 -11 99 -100 0
-17 8 -11 -99 101 0
-17 8 -11 -99 -101 0
20 -16 1 102 103 0
20 -16 1 102 -103 0
20 -16 1 -102 104 0
20 -16 1 -102 -104 0
9 1 -16 105 106 0
9 1 -16 105 -106 0
9 1 -16 -105 107 0
9 1 -16 -105 -107 0
13 -3 19 108 109 0
13 -3 19 108 -109 0
13 -3 19 -108 110 0
13 -3 19 -108 -110 0
15 16 -2 111 112 0
15 16 -2 111 -112 0
15 16 -2 -111 113 0
15 16 -2 -111 -113 0
-20 -9 10 114 115 0
-20 -9 10 114 -115 0
-20 -9 10 -114 116 0
-20 -9 10 -114 -116 0
14 12 -6 117 118 0
14 12 -6 117 -118 0
14 12 -6 -117 119 0
14 12 -6 -117 -119 0
11 9 15 120 121 0
11 9 15 120 -121 0
11 9 15 -120 122 0
11 9 15 -120 -122 0
-12 17 -5 123 124 0
-12 17 -5 123 -124 0
-12 17 -5 -123 125 0
-12 17 -5 -123 -125 0
-8 4 -15 126 127 0
-8 4 -15 126 -127 0
-8 4 -15 -126 128 0
-8 4 -15 -126 -128 0
11 -15 4 129 130 0
11 -15 4 129 -130 0
11 -15 4 -129 131 0
11 -15 4 -129 -131 0
-18 2 14 132 133 0
-18 2 14 132 -133 0
-18 2 14 -132 134 0
-18 2 14 -132 -134 0
11 19 18 135 136 0
11 19 18 135 -136 0
11 19 18 -135 137 0
11 19 18 -135 -137 0
-12 -20 19 138 139 0
-12 -20 19 138 -139 0
-12 -20 19 -138 140 0
-12 -20 19 -138 -140 0
-10 -20 -5 141 142 0
-10 -20 -5 141 -142 0
-10 -20 -5 -141 143 0
-10 -20 -5 -141 -143 0
1 11 -3 144 145 0
1 11 -3 144 -145 0
1 11 -3 -144 146 0
1 11 -3 -144 -146 0
-3 -5 -2 147 148 0
-3 -5 -2 147 -148 0
-3 -5 -2 -147 149 0
-3 -5 -2 -147 -149 0
-11 -10 18 150 151 0
-11 -10 18 150 -151 0
-11 -10 18 -150 152 0
-11 -10 18 -150 -152 0
-19 -10 -6 153 154 0
-19 -10 -6 153 -154 0
-19 -10 -6 -153 155 0
-19 -10 -6 -153 -155 0
11 6 -20 156 157 0
11 6 -20 156 -157 0
11 6 -20 -156 158 0
11 6 -20 -156 -158 0
3 -11 -1 159 160 0
3 -11 -1 159 -160 0
3 -11 -1 -159 161 0
3 -11 -1 -159 -161 0
-10 14 17 162 163 0
-10 14 17 162 -163 0
-10 14 17 -162 164 0
-10 14 17 -162 -164 0
4 -17 18 165 166 0
4 -17 18 165 -166 0
4 -17 18 -165 167 0
4 -17 18 -165 -167 0
-11 14 -19 168 169 0
-11 14 -19 168 -169 0
-11 14 -19 -168 170 0
-11 14 -19 -168 -170 0
-11 -16 -19 171 172 0
-11 -16 -19 171 -172 0
-11 -16 -19 -171 173 0
-11 -16 -19 -171 -173 0
9 19 11 174 175 0
9 19 11 174 -175 0
9 19 11 -174 176 0
9 19 11 -174 -176 0
2 16 18 177 178 0
2 16 18 177 -178 0
2 16 18 -177 179 0
2 16 18 -177 -179 0
-11 -18 -5 180 181 0
-11 -18 -5 180 -181 0
-11 -18 -5 -180 182 0
-11 -18 -5 -180 -182 0
-3 -6 12 183 184 0
-3 -6 12 183 -184 0
-3 -6 12 -183 185 0
-3 -6 12 -183 -185 0
-10 6 4 186 187 0
-10 6 4 186 -187 0
-10 6 4 -186 188 0
-10 6 4 -186 -188 0
-9 1 -15 189 190 0
-9 1 -15 189 -190 0
-9 1 -15 -189 191 0
-9 1 -15 -189 -191 0
-20 2 -12 192 193 0
-20 2 -12 192 -193 0
-20 2 -12 -192 194 0
-20 2 -12 -192 -194 0
4 -19 10 195 196 0
4 -19 10 195 -196 0
4 -19 10 -195 197 0
4 -19 10 -195 -197 0
-1 -13 -8 198 199 0
-1 -13 -8 198 -199 0
-1 -13 -8 -198 200 0
-1 -13 -8 -198 -200 0
18 -1 4 201 202 0
18 -1 4 201 -202 0
18 -1 4 -201 203 0
18 -1 4 -201 -203 0
-5 8 -6 204 205 0
-5 8 -6 204 -205 0
-5 8 -6 -204 206 0
-5 8 -6 -204 -206 0
15 5 14 207 208 0
15 5 14 207 -208 0
15 5 14 -207 209 0
15 5 14 -207 -209 0
18 -6 -1 210 211 0
18 -6 -1 210 -211 0
18 -6 -1 -210 212 0
18 -6 -1 -210 -212 0
-10 14 -5 213 214 0
-10 14 -5 213 -214 0
-10 14 -5 -213 215 0
-10 14 -5 -213 -215 0
-15 3 -16 216 217 0
-15 3 -16 216 -217 0
-15 3 -16 -216 218 0
-15 3 -16 -216 -218 0
4 9 3 219 220 0
4 9 3 219 -220 0
4 9 3 -219 221 0
4 9 3 -219 -221 0
-1 3 -14 222 223 0
-1 3 -14 222 -223 0
-1 3 -14 -222 224 0
-1 3 -14 -222 -224 0
-16 -7 -1 225 226 0
-16 -7 -1 225 -226 0
-16 -7 -1 -225 227 0
-16 -7 -1 -225 -227 0
-8 -3 -7 228 229 0
-8 -3 -7 228 -229 0
-8 -3 -7 -228 230 0
-8 -3 -7 -228 -230 0
-7 -15 -2 231 232 0
-7 -15 -2 231 -232 0
-7 -15 -2 -231 233 0
-7 -15 -2 -231 -233 0
16 -8 20 234 235 0
16 -8 20 234 -235 0
16 -8 20 -234 236 0
16 -8 20 -234 -236 0
-5 18 -1 237 238 0
-5 18 -1 237 -238 0
-5 18 -1 -237 239 0
-5 18 -1 -237 -239 0
-15 12 17 240 241 0
-15 12 17 240 -241 0
-15 12 17 -240 242 0
-15 12 17 -240 -242 0
19 8 17 243 244 0
19 8 17 243 -244 0
19 8 17 -243 245 0
19 8 17 -243 -245 0
-17 -2 3 246 247 0
-17 -2 3 246 -247 0
-17 -2 3 -246 248 0
-17 -2 3 -246 -248 0
-16 -9 10 249 250 0
-16 -9 10 249 -250 0
-16 -9 10 -249 251 0
-16 -9 10 -249 -251 0
3 -17 2 252 253 0
3 -17 2 252 -253 0
3 -17 2 -252 254 0
3 -17 2 -252 -254 0
-20 9 17 255 256 0
-20 9 17 255 -256 0
-20 9 17 -255 257 0
-20 9 17 -255 -257 0
18 -13 -3 258 259 0
18 -13 -3 258 -259 0
18 -13 -3 -258 260 0
18 -13 -3 -258 -260 0
4 -1 -14 261 262 0
4 -1 -14 261 -262 0
4 -1 -14 -261 263 0
4 -1 -14 -261 -263 0
-18 -4 5 264 265 0
-18 -4 5 264 -265 0
-18 -4 5 -264 266 0
-18 -4 5 -264 -266 0
-15 13 -11 267 268 0
-15 13 -11 267 -268 0
-15 13 -11 -267 269 0
-15 13 -11 -267 -269 0
-18 16 -14 270 271 0
-18 16 -14 270 -271 0
-18 16 -14 -270 272 0
-18 16 -14 -270 -272 0
13 -15 -2 273 274 0
13 -15 -2 273 -274 0
13 -15 -2 -273 275 0
13 -15 -2 -273 -275 0
4 15 6 276 277 0
4 15 6 276 -277 0
4 15 6 -276 278 0
4 15 6 -276 -278 0
-4 13 -5 279 280 0
-4 13 -5 279 -280 0
-4 13 -5 -279 281 0
-4 13 -5 -279 -281 0
11 20 5 282 283 0
11 20 5 282 -283 0
11 20 5 -282 284 0
11 20 5 -282 -284 0
-5 -3 20 285 286 0
-5 -3 20 285 -286 0
-5 -3 20 -285 287 0
-5 -3 20 -285 -287 0
-17 11 -19 288 289 0
-17 11 -19 288 -289 0
-17 11 -19 -288 290 0
-17 11 -19 -288 -290 0
15 -5 -16 291 292 0
15 -5 -16 291 -292 0
15 -5 -16 -291 293 0
15 -5 -16 -291 -293 0
294 295 297 301 309 0
294 295 297 301 -309 0
294 295 297 -301 310 0
294 295 297 -301 -310 0
294 295 -297 302 311 0
294 295 -297 302 -311 0
294 295 -297 -302 312 0
294 295 -297 -302 -312 0
294 -295 298 303 313 0
294 -295 298 303 -313 0
294 -295 298 -303 314 0
294 -295 298 -303 -314 0
294 -295 -298 304 315 0
294 -295 -298 304 -315 0
294 -295 -298 -304 316 0
294 -295 -298 -304 -316 0
-294 296 299 305 317 0
-294 296 299 305 -317 0
-294 296 299 -305 318 0
-294 296 299 -305 -318 0
-294 296 -299 306 319 0
-294 296 -299 306 -319 0
-294 296 -299 -306 320 0
-294 296 -299 -306 -320 0
-294 -296 300 307 321 0
-294 -296 300 307 -321 0
-294 -296 300 -307 322 0
-294 -296 300 -307 -322 0
-294 -296 -300 308 323 0
-294 -296 -300 308 -323 0
-294 -296 -300 -308 324 0
-294 -296 -300 -308 -324 0
325 326 328 332 340 0
325 326 328 332 -340 0
325 326 328 -332 341 0
325 326 328 -332 -341 0
325 326 -328 333 342 0
325 326 -328 333 -342 0
325 326 -328 -333 343 0
325 326 -328 -333 -343 0
325 -326 329 334 344 0
325 -326 329 334 -344 0
325 -326 329 -334 345 0
325 -326 329 -334 -345 0
325 -326 -329 335 346 0
325 -326 -329 335 -346 0
325 -326 -329 -335 347 0
325 -326 -329 -335 -347 0
-325 327 330 336 348 0
-325 327 330 336 -348 0
-325 327 330 -336 349 0
-325 327 330 -336 -349 0
-325 327 -330 337 350 0
-325 327 -330 337 -350 0
-325 327 -330 -337 351 0
-325 327 -330 -337 -351 0
-325 -327 331 338 352 0
-325 -327 331 338 -352 0
-325 -327 331 -338 353 0
-325 -327 331 -338 -353 0
-325 -327 -331 339 354 0
-325 -327 -331 339 -354 0
-325 -327 -331 -339 355 0
-325 -327 -331 -339 -355 0
356 357 359 363 371 0
356 357 359 363 -371 0
356 357 359 -363 372 0
356 357 359 -363 -372 0
356 357 -359 364 373 0
356 357 -359 364 -373 0
356 357 -359 -364 374 0
356 357 -359 -364 -374 0
356 -357 360 365 375 0
356 -357 360 365 -375 0
356 -357 360 -365 376 0
356 -357 360 -365 -376 0
356 -357 -360 366 377 0
356 -357 -360 366 -377 0
356 -357 -360 -366 378 0
356 -357 -360 -366 -378 0
-356 358 361 367 379 0
-356 358 361 367 -379 0
-356 358 361 -367 380 0
-356 358 361 -367 -380 0
-356 358 -361 368 381 0
-356 358 -361 368 -381 0
-356 358 -361 -368 382 0
-356 358 -361 -368 -382 0
-356 -358 362 369 383 0
-356 -358 362 369 -383 0
-356 -358 362 -369 384 0
-356 -358 362 -369 -384 0
-356 -358 -362 370 385 0
-356 -358 -362 370 -385 0
-356 -358 -362 -370 386 0
-356 -358 -362 -370 -386 0

